c smth
s vc 166 111
166
165
164
162
161
160
159
158
157
156
153
151
150
149
147
146
145
143
142
141
140
138
136
135
134
133
132
131
129
128
127
125
124
121
120
119
118
117
116
114
113
112
110
108
106
105
103
101
100
99
98
97
96
94
93
91
88
87
86
85
83
81
79
76
74
73
72
68
67
66
64
63
61
60
59
58
57
55
54
50
46
44
42
40
39
38
36
34
33
32
30
28
26
25
23
22
20
17
16
14
13
11
10
9
8
7
6
4
3
2
1